Maximize 
obj: 8.857349 P1T1 + 8.857349 P2T5 + 8.857349 P3T7 + 3.0375 P1T2 + 3.6449997 P1T3 + 4.9207497 P1T4 + 3.0375 P2T3 + 3.6449997 P2T4 + 4.9207497 P2T6 + 3.0375 P3T2 + 3.6449997 P3T4 + 4.9207497 P3T6  -1.5 P1T0 -1.5 P2T0 -1.5 P3T0 ;

Subject to 

P1T1  = 1;
P1T2 + P3T2  = 1;
P1T3 + P2T3  = 1;
P1T4 + P2T4 + P3T4  = 1;
P2T5  = 1;
P2T6 + P3T6  = 1;
P3T7  = 1;
P1T0 + P2T0 + P3T0  = 1;


P1T1 + P1T2 + P1T3 + P1T4 +  P1T0  >= 1;
P2T5 + P2T3 + P2T4 + P2T6 +  P2T0  >= 1;
P3T7 + P3T2 + P3T4 + P3T6 +  P3T0  >= 1;


-1 P1T1 + 4 P1T2 + 3 P1T3 + 6 P1T4 + 4 P1T0   > 4;
-3 P2T5 + 3 P2T3 + 6 P2T4 + 6 P2T6 + 4 P2T0   > 4;
-4 P3T7 + 4 P3T2 + 6 P3T4 + 6 P3T6 + 4 P3T0   > 4;


-1 P1T1 + 4 P1T2 + 3 P1T3 + 6 P1T4 + 4 P1T0   <= 14;
-3 P2T5 + 3 P2T3 + 6 P2T4 + 6 P2T6 + 4 P2T0   <= 14;
-4 P3T7 + 4 P3T2 + 6 P3T4 + 6 P3T6 + 4 P3T0   <= 14;

BINARY

 P1T1  P1T2  P1T3  P1T4  P1T0  P2T5  P2T3  P2T4  P2T6  P2T0  P3T7  P3T2  P3T4  P3T6  P3T0 ;

END